c SAT Generator for power-law distributed variable frequencies
c -g u -v 20 -c 91 -k 3 -p 2.750000 -b 3.200000 -f /home/schmidt/Devel/ni-kop-sat/data/ensemble/ruf20-91/ruf20-91-647 -u 1 -U 1 -s 1996795778
p cnf 20 91
-2 8 10 0
10 16 17 0
13 15 19 0
4 10 20 0
7 10 14 0
-2 -10 -13 0
-7 12 -16 0
5 -12 19 0
7 9 16 0
-3 13 14 0
-2 18 20 0
-4 7 -12 0
-11 -18 -19 0
-2 15 -18 0
9 -14 17 0
2 -15 18 0
1 12 17 0
-3 -5 18 0
-7 16 -17 0
-6 -7 13 0
1 -7 16 0
1 7 16 0
2 -5 -16 0
5 -10 13 0
-2 5 -8 0
-8 12 -19 0
-1 9 -17 0
-2 8 -13 0
1 -11 -15 0
2 4 17 0
-11 18 19 0
-8 14 -19 0
6 8 16 0
-7 -13 18 0
-2 3 7 0
7 8 14 0
-8 -9 -19 0
-2 -11 -17 0
4 -11 16 0
-6 15 -19 0
2 11 -15 0
-5 -7 20 0
1 -10 13 0
8 15 17 0
-3 10 17 0
2 4 -18 0
-6 16 18 0
-3 5 6 0
-2 -7 -8 0
-6 18 -20 0
-4 8 13 0
6 11 -12 0
-5 12 -15 0
-7 -14 -15 0
5 10 -11 0
-6 11 19 0
-2 4 -14 0
2 -7 19 0
1 -2 -3 0
5 9 -11 0
10 14 -18 0
-7 18 -20 0
-5 -12 17 0
3 8 -20 0
-13 -15 20 0
6 11 19 0
6 9 -12 0
-7 8 13 0
-3 6 8 0
-7 -16 19 0
-1 -7 12 0
-9 -16 -19 0
-1 10 -13 0
4 -9 14 0
5 -7 -19 0
2 11 18 0
-3 4 14 0
5 -8 -9 0
-6 9 -10 0
-3 16 18 0
-7 -9 16 0
-1 -15 16 0
8 11 -15 0
6 -15 -17 0
5 13 -18 0
10 -14 18 0
15 -19 20 0
-2 -9 19 0
4 -12 -15 0
-3 5 8 0
2 -3 -5 0
